50, 4879
6, 147
236, 104
20, 490
590, 260
6, 147
118, 52
354, 156
590, 260
12, 294
59, 26
413, 182
354, 156
413, 182
4, 98
236, 104
18, 441
2, 49
236, 104
295, 130
236, 104
118, 52
354, 156
590, 260
59, 26
20, 490
295, 130
6, 147
413, 182
413, 182
12, 294
6, 147
8, 196
472, 208
12, 294
14, 343
472, 208
14, 343
354, 156
590, 260
236, 104
4, 98
59, 26
6, 147
472, 208
2, 49
59, 26
295, 130
177, 78
118, 52
8, 196
